50, 5104
441, 532
15, 75
3, 15
252, 304
378, 456
15, 75
567, 684
12, 60
18, 90
504, 608
378, 456
12, 60
63, 76
27, 135
567, 684
126, 152
378, 456
21, 105
441, 532
27, 135
378, 456
126, 152
24, 120
18, 90
126, 152
630, 760
6, 30
504, 608
24, 120
630, 760
3, 15
63, 76
126, 152
126, 152
15, 75
63, 76
30, 150
504, 608
630, 760
252, 304
315, 380
504, 608
27, 135
24, 120
189, 228
315, 380
18, 90
378, 456
12, 60
6, 30
